%%%mzn-stat: initTime=0.020476426
%%%mzn-stat: objective=131
%%%mzn-stat: nodes=1978
%%%mzn-stat: restarts=0
%%%mzn-stat: peakDepth=829
%%%mzn-stat: solveTime=0.411919018
%%%mzn-stat: variables=1790
%%%mzn-stat: propagators=1453
%%%mzn-stat: failures=347
%%%mzn-stat: propagations=82529
%%%mzn-stat: nogoods=347
%%%mzn-stat: AverageConflictSize=13.39193083573487
%%%mzn-stat: NumUnitNogoodsLearned=130
%%%mzn-stat: AverageLearnedNogoodLength=39.216138328530256
%%%mzn-stat: AverageBacktrackAmount=0
%%%mzn-stat: AverageLbd=16.804034582132566
%%%mzn-stat-end
maxleg = 131;
succ = array1d(1..150,[148, 98, 136, 144, 40, 17, 24, 101, 42, 47, 87, 111, 25, 31, 145, 86, 65, 7, 117, 62, 76, 74, 89, 37, 127, 119, 103, 10, 12, 13, 138, 90, 60, 146, 57, 141, 39, 142, 128, 50, 129, 11, 6, 137, 149, 27, 121, 72, 69, 33, 81, 54, 150, 44, 113, 51, 55, 126, 56, 26, 107, 21, 135, 5, 28, 116, 143, 36, 96, 112, 63, 29, 102, 16, 70, 77, 9, 53, 61, 131, 124, 118, 48, 110, 105, 134, 139, 66, 52, 140, 93, 64, 122, 106, 14, 88, 100, 133, 82, 49, 3, 46, 80, 147, 91, 78, 4, 45, 38, 19, 2, 18, 97, 85, 68, 114, 104, 132, 115, 79, 75, 43, 71, 30, 20, 35, 125, 83, 22, 109, 15, 84, 123, 99, 108, 120, 1, 8, 67, 58, 73, 95, 34, 59, 32, 23, 92, 41, 94, 130]);
% time elapsed: 5.06 s
----------
==========
% time elapsed: 5.06 s
%%%mzn-stat: initTime=0.020476426
%%%mzn-stat: objective=131
%%%mzn-stat: nodes=1978
%%%mzn-stat: restarts=0
%%%mzn-stat: peakDepth=829
%%%mzn-stat: solveTime=0.411933564
%%%mzn-stat: variables=1790
%%%mzn-stat: propagators=1453
%%%mzn-stat: failures=347
%%%mzn-stat: propagations=82529
%%%mzn-stat: nogoods=347
%%%mzn-stat: AverageConflictSize=13.39193083573487
%%%mzn-stat: NumUnitNogoodsLearned=130
%%%mzn-stat: AverageLearnedNogoodLength=39.216138328530256
%%%mzn-stat: AverageBacktrackAmount=0
%%%mzn-stat: AverageLbd=16.804034582132566
%%%mzn-stat-end
